NAME : 10_3_3_1_(47).dat
COMMENT : Henke, Speranza, Wäscher, 2015
TYPE : MCVRP
DIMENSION : 11
EDGE_WEIGHT_TYPE : DISTANCE_MATRIX
CAPACITY : 1000
VEHICLES : 2
PRODUCT TYPES : 3
COMPARTMENTS : 3
NODE_COORD_SECTION
1 50 50
2 0.4 92.97
3 26.11 2.16
4 10.68 20.44
5 0.67 54.94
6 74.63 63.72
7 99.34 28.8
8 32.73 25.41
9 99.89 8.17
10 67.19 99.19
11 41 37.21
DEMAND_SECTION
1 0 0 0
2 0 413 0
3 119 0 0
4 38 0 0
5 123 0 0
6 0 0 24
7 110 0 0
8 81 0 0
9 156 0 0
10 0 0 251
11 61 0 0
DEPOT_SECTION
1
EOF